param set_len = 48;
param target_sum = 11567350516;
param values := [1] 801042116 [2] 66997702 [3] 21830812 [4] 37242041 [5] 265247149 [6] 561424955 [7] 173211803 [8] 671552624 [9] 93414032 [10] 800340924 [11] 292462813 [12] 129166897 [13] 69392559 [14] 777608759 [15] 10043276 [16] 446624771 [17] 190346635 [18] 132680138 [19] 131041976 [20] 139058870 [21] 780919473 [22] 831556202 [23] 643628442 [24] 128260961 [25] 467943281 [26] 801047868 [27] 793430062 [28] 918524318 [29] 496777314 [30] 216463983 [31] 435676335 [32] 211524977 [33] 456988397 [34] 1013504562 [35] 758622622 [36] 600407026 [37] 396621327 [38] 47405856 [39] 89348550 [40] 8054690 [41] 713838222 [42] 733610508 [43] 601706418 [44] 80653487 [45] 447032461 [46] 963211055 [47] 365815775 [48] 807185623 ;
